p cnf 788 2119
c ind 775 776 778 779 709 750 781 782 783 555 0
c ind 713 754 539 550 574 577 580 585 588 591 0
c ind 595 598 601 604 605 618 621 622 623 626 0
c ind 627 628 633 634 635 642 643 644 650 651 0
c ind 652 659 661 710 711 735 736 741 742 744 0
c ind 745 747 748 751 752 757 758 760 761 763 0
c ind 764 766 767 769 770 772 773 785 544 549 0
c ind 565 570 606 612 615 660 560 712 784 786 0
c ind 726 728 706 719 720 727 731 753 756 714 0
c ind 716 723 724 738 739 755 620 637 669 671 0
c ind 677 682 688 689 695 700 705 722 730 732 0
c ind 733 774 668 681 687 694 715 654 663 676 0
c ind 780 649 743 771 658 670 699 746 749 675 0
c ind 696 697 698 718 759 762 765 608 609 631 0
c ind 632 640 648 657 666 673 674 685 693 703 0
c ind 737 768 582 603 625 630 638 639 646 647 0
c ind 655 656 683 684 691 692 701 702 680 777 0
c ind 678 679 664 665 593 594 536 537 538 540 0
c ind 535 541 542 545 546 572 573 583 548 559 0
c ind 597 534 547 596 543 558 599 600 533 562 0
c ind 578 579 586 589 662 686 557 564 569 576 0
c ind 587 610 613 616 636 672 734 556 567 575 0
c ind 590 611 617 532 561 584 614 667 566 568 0
c ind 629 645 690 704 717 721 729 641 653 531 0
c ind 725 740 563 619 602 581 624 592 607 571 0
c ind 707 708 552 554 551 553 1 0
c ret 469 478 479 480 481 482 483 484 485 486 0
c ret 487 470 488 489 490 491 492 493 494 495 0
c ret 496 471 497 498 499 500 501 502 503 504 0
c ret 505 506 472 507 508 509 510 511 512 513 0
c ret 514 515 473 516 517 518 519 520 521 522 0
c ret 523 474 524 525 526 527 528 529 530 475 0
c ret 476 477 0
2 -3 -20 -57 -262 0
-2 262 0
-2 3 0
-2 57 0
-2 20 0
3 4 10 15 18 0
-3 -18 0
-3 -15 0
-3 -4 0
-3 -10 0
4 -5 -8 -9 709 0
-4 -709 0
-4 9 0
-4 8 0
-4 5 0
5 -6 509 517 0
-5 6 0
-5 -517 0
-5 -509 0
6 -7 481 0
-6 -481 0
-6 7 0
7 484 485 486 487 0
-7 -487 0
-7 -486 0
-7 -484 0
-7 -485 0
8 -572 -573 0
-8 572 0
-8 573 0
9 -558 -559 0
-9 558 0
-9 559 0
10 -11 -14 -708 -786 0
-10 14 0
-10 708 0
-10 11 0
-10 786 0
11 -12 470 0
-11 -470 0
-11 12 0
12 -13 471 0
-12 -471 0
-12 13 0
13 472 473 474 0
-13 -472 0
-13 -474 0
-13 -473 0
14 469 -707 0
-14 -469 0
-14 707 0
15 -761 762 0
15 16 762 0
15 -760 762 0
-15 -762 0
-15 -16 760 761 0
16 -17 625 669 671 0
-16 17 0
-16 -671 0
-16 -625 0
-16 -669 0
17 630 631 0
-17 -630 0
-17 -631 0
-11 18 -19 529 -774 0
-18 -529 0
-18 19 0
11 -18 0
-18 774 0
19 -707 -708 0
-19 707 0
-19 708 0
20 -21 34 37 -40 0
-20 40 0
-20 -37 0
-20 21 0
-20 -34 0
21 22 30 0
21 22 31 -32 0
-21 -22 0
-21 -30 -31 0
-21 -30 32 0
22 23 -28 -29 505 0
-22 -505 0
-22 29 0
-22 28 0
-22 -23 0
23 24 27 0
23 24 -652 0
23 24 26 0
-23 -24 0
-23 -26 -27 652 0
24 -25 661 0
-24 -661 0
-24 25 0
25 501 514 -616 -617 0
-25 -501 0
-25 617 0
-25 616 0
-25 -514 0
26 -589 -590 0
-26 589 0
-26 590 0
27 514 515 0
-27 -514 0
-27 -515 0
28 503 504 519 528 0
-28 -528 0
-28 -519 0
-28 -503 0
-28 -504 0
29 -547 -548 0
-29 547 0
-29 548 0
30 -551 -552 -553 -554 0
-30 554 0
-30 551 0
-30 553 0
-30 552 0
31 -624 -699 738 0
-31 624 0
-31 699 0
-31 -738 0
32 -33 -713 0
32 -33 712 0
-32 33 0
-32 -712 713 0
33 -754 784 0
33 753 -785 0
33 753 784 0
33 -754 -785 0
-33 -753 754 0
-33 -784 785 0
34 -748 749 0
34 35 749 0
34 -747 749 0
-34 -749 0
-34 -35 747 748 0
35 -36 714 716 0
-35 36 0
-35 -716 0
-35 -714 0
36 646 647 648 0
-36 -646 0
-36 -648 0
-36 -647 0
37 -736 737 0
37 38 737 0
37 -735 737 0
-37 -737 0
-37 -38 735 736 0
38 -39 719 720 0
-38 39 0
-38 -720 0
-38 -719 0
39 673 674 675 0
-39 -673 0
-39 -675 0
-39 -674 0
40 41 44 47 50 0
-40 -50 0
-40 -47 0
-40 -41 0
-40 -44 0
41 -767 768 0
41 42 768 0
41 -766 768 0
-41 -768 0
-41 -42 766 767 0
42 -43 723 724 0
-42 43 0
-42 -724 0
-42 -723 0
43 655 656 657 0
-43 -655 0
-43 -657 0
-43 -656 0
44 -779 780 0
44 45 780 0
44 -778 780 0
-44 -780 0
-44 -45 778 779 0
45 -46 732 733 0
-45 46 0
-45 -733 0
-45 -732 0
46 678 679 680 0
-46 -678 0
-46 -680 0
-46 -679 0
-5 47 -48 -49 750 0
-47 -750 0
-47 49 0
-47 48 0
5 -47 0
48 -583 -584 0
-48 583 0
-48 584 0
49 -593 -594 0
-49 593 0
-49 594 0
50 -52 -54 0
50 -51 -54 659 0
-50 54 0
-50 52 -659 0
-50 51 52 0
51 483 508 -610 -611 0
-51 -483 0
-51 611 0
-51 610 0
-51 -508 0
-48 52 -53 650 0
-52 53 0
48 -52 0
-52 -650 0
53 508 509 0
-53 -508 0
-53 -509 0
54 -55 -56 517 526 0
-54 -517 0
-54 56 0
-54 55 0
-54 -526 0
55 486 487 0
-55 -486 0
-55 -487 0
56 485 -535 -536 0
-56 536 0
-56 535 0
-56 -485 0
57 -58 -107 -144 -188 0
-57 188 0
-57 58 0
-57 144 0
-57 107 0
58 -59 -84 -95 -100 0
-58 100 0
-58 59 0
-58 95 0
-58 84 0
59 -60 -67 -73 -78 0
-59 78 0
-59 60 0
-59 73 0
-59 67 0
60 62 -64 690 0
60 -61 62 -64 0
-60 64 0
-60 -62 0
-60 61 -690 0
61 729 740 0
61 -744 -760 0
61 729 -760 0
61 740 -744 0
-61 -729 744 0
-61 -740 760 0
62 -63 -667 0
62 -641 -667 668 0
-62 667 0
-62 63 -668 0
-62 63 641 0
63 -729 773 0
-63 729 0
-63 -773 0
64 -65 -727 0
64 -66 721 0
64 721 -727 0
64 -65 -66 0
-64 66 727 0
-64 65 -721 0
65 725 740 0
65 -741 -778 0
65 740 -778 0
65 725 -741 0
-65 -740 741 0
-65 -725 778 0
66 701 702 703 0
-66 -701 0
-66 -703 0
-66 -702 0
67 -68 71 740 0
67 -68 71 -72 0
-67 68 0
-67 -71 0
-67 72 -740 0
68 704 717 0
68 -69 -70 0
68 -70 704 0
68 -69 717 0
-68 69 -704 0
-68 70 -717 0
69 641 725 0
69 -742 -775 0
69 641 -775 0
69 725 -742 0
-69 -641 742 0
-69 -725 775 0
70 -722 729 0
70 721 -757 0
70 721 729 0
70 -722 -757 0
-70 -721 722 0
-70 -729 757 0
71 -781 784 0
71 -782 784 0
71 -783 784 0
-71 -784 0
-71 781 782 783 0
72 725 734 0
72 -747 -755 0
72 725 -755 0
72 734 -747 0
-72 -725 747 0
-72 -734 755 0
73 74 -75 -681 0
-46 73 74 -75 0
-73 75 0
-73 -74 0
46 -73 681 0
74 -574 581 0
74 -577 581 0
74 -580 581 0
-74 -581 0
-74 574 577 580 0
75 77 -731 0
75 -76 77 0
-75 -77 0
-75 76 731 0
76 668 713 722 730 0
-76 -730 0
-76 -722 0
-76 -668 0
-76 -713 0
77 -560 571 0
77 -565 571 0
77 -570 571 0
-77 -571 0
-77 560 565 570 0
78 -79 82 -83 0
78 -79 82 -592 0
-78 79 0
-78 -82 0
-78 83 592 0
79 81 -756 0
79 -80 81 0
-79 -81 0
-79 80 756 0
80 687 722 754 755 0
-80 -755 0
-80 -754 0
-80 -687 0
-80 -722 0
81 -604 607 0
81 -605 607 0
81 -606 607 0
-81 -607 0
-81 604 605 606 0
82 -595 602 0
82 -598 602 0
82 -601 602 0
-82 -602 0
-82 595 598 601 0
83 585 588 591 0
-83 -585 0
-83 -591 0
-83 -588 0
84 85 86 -87 -89 0
-84 -85 0
-84 89 0
-84 87 0
-84 -86 0
85 -539 550 0
85 -544 550 0
85 -549 550 0
-85 -550 0
-85 539 544 549 0
86 -626 629 0
86 -627 629 0
86 -628 629 0
-86 -629 0
-86 626 627 628 0
30 87 88 0
87 88 -555 0
87 88 550 0
-87 -88 0
-30 -87 -550 555 0
88 -621 624 0
88 -622 624 0
88 -623 624 0
-88 -624 0
-88 621 622 623 0
89 91 -92 -699 0
89 -90 91 -92 0
-89 92 0
-89 -91 0
-89 90 699 0
90 696 697 698 0
-90 -696 0
-90 -698 0
-90 -697 0
91 -612 619 0
91 -615 619 0
91 -618 619 0
-91 -619 0
-91 612 615 618 0
92 94 -786 0
92 -93 94 0
-92 -94 0
-92 93 786 0
93 705 730 755 785 0
-93 -785 0
-93 -755 0
-93 -705 0
-93 -730 0
94 -633 636 0
94 -634 636 0
94 -635 636 0
-94 -636 0
-94 633 634 635 0
95 97 -98 641 0
95 -96 97 -98 0
-95 98 0
-95 -97 0
-95 96 -641 0
96 717 725 0
96 -761 -764 0
96 717 -764 0
96 725 -761 0
-96 -717 761 0
-96 -725 764 0
97 -709 712 0
97 -710 712 0
97 -711 712 0
-97 -712 0
-97 709 710 711 0
98 99 -658 0
-43 98 99 0
-98 -99 0
43 -98 658 0
99 -659 662 0
99 -660 662 0
99 -661 662 0
-99 -662 0
-99 659 660 661 0
100 -101 105 -694 0
100 -101 -104 105 0
-100 101 0
-100 -105 0
-100 104 694 0
101 102 -676 0
-39 101 102 0
-101 -102 0
39 -101 676 0
102 -470 708 0
102 103 708 0
102 -469 708 0
-102 -708 0
-102 -103 469 470 0
103 471 529 0
-103 -471 0
-103 -529 0
104 691 692 693 0
-104 -691 0
-104 -693 0
-104 -692 0
105 -106 -667 0
105 -667 -721 770 0
-105 667 0
-105 106 721 0
-105 106 -770 0
106 -690 767 0
-106 690 0
-106 -767 0
107 -108 -131 139 142 0
-107 131 0
-107 -142 0
-107 108 0
-107 -139 0
108 -109 124 -746 0
108 -109 -122 124 0
-108 109 0
-108 -124 0
-108 122 746 0
109 110 118 0
109 110 -119 0
-109 -110 0
-109 -118 119 0
110 -111 -115 -116 0
110 -113 -115 -116 0
-110 116 0
-110 115 0
-110 111 113 0
111 -112 495 -541 598 0
-111 541 0
-111 -598 0
-111 -495 0
-111 112 0
112 -596 -597 0
-112 596 0
-112 597 0
113 -114 513 -541 577 0
-113 541 0
-113 -577 0
-113 -513 0
-113 114 0
114 -575 -576 0
-114 575 0
-114 576 0
115 512 518 0
-115 -512 0
-115 -518 0
116 -117 493 524 -540 0
-116 -493 0
-116 117 0
-116 540 0
-116 -524 0
117 496 511 0
-117 -496 0
-117 -511 0
-19 118 469 529 530 0
19 -118 0
-118 -530 0
-118 -469 0
-118 -529 0
119 120 746 0
119 121 731 0
119 120 121 0
119 731 746 0
-119 -120 -731 0
-119 -121 -746 0
120 471 472 474 0
-120 -471 0
-120 -474 0
-120 -472 0
121 471 473 474 0
-121 -471 0
-121 -474 0
-121 -473 0
122 -123 620 744 745 0
-122 123 0
-122 -745 0
-122 -620 0
-122 -744 0
123 637 638 639 640 0
-123 -640 0
-123 -639 0
-123 -637 0
-123 -638 0
-19 124 -125 -130 0
-19 124 -128 -130 0
-124 130 0
19 -124 0
-124 125 128 0
125 -126 -127 0
125 -126 529 -771 0
-125 126 0
-125 127 -529 0
-125 127 771 0
126 471 472 473 0
-126 -471 0
-126 -473 0
-126 -472 0
127 469 -780 0
-127 -469 0
-127 780 0
128 -129 471 529 -777 0
-128 -471 0
-128 129 0
-128 777 0
-128 -529 0
129 472 474 0
-129 -472 0
-129 -474 0
130 470 530 0
-130 -470 0
-130 -530 0
131 132 -136 -645 0
131 132 -135 -136 0
-131 136 0
-131 -132 0
-131 135 645 0
132 -770 771 0
132 133 771 0
132 -769 771 0
-132 -771 0
-132 -133 769 770 0
133 -134 677 682 685 0
-133 134 0
-133 -685 0
-133 -677 0
-133 -682 0
134 683 684 0
-134 -683 0
-134 -684 0
135 642 643 644 0
-135 -642 0
-135 -644 0
-135 -643 0
136 -137 -706 0
136 -138 -670 0
136 -670 -706 0
136 -137 -138 0
-136 138 706 0
-136 137 670 0
137 638 639 640 0
-137 -638 0
-137 -640 0
-137 -639 0
138 555 668 687 705 0
-138 -705 0
-138 -687 0
-138 -555 0
-138 -668 0
139 -764 765 0
139 140 765 0
139 -763 765 0
-139 -765 0
-139 -140 763 764 0
140 -141 582 688 689 0
-140 141 0
-140 -689 0
-140 -582 0
-140 -688 0
141 603 608 0
-141 -603 0
-141 -608 0
142 -758 759 0
142 143 759 0
142 -757 759 0
-142 -759 0
-142 -143 757 758 0
-104 143 738 739 0
104 -143 0
-143 -739 0
-143 -738 0
144 -145 -165 -179 -183 0
-144 183 0
-144 145 0
-144 179 0
-144 165 0
145 -146 -155 161 163 0
-145 155 0
-145 -163 0
-145 146 0
-145 -161 0
146 -147 151 152 0
146 -147 151 -153 0
-146 147 0
-146 -151 0
-146 -152 153 0
147 148 149 0
147 149 -692 0
147 149 624 0
-147 -149 0
-147 -148 -624 692 0
-30 148 -619 0
-148 619 0
30 -148 0
149 -150 -607 679 0
-149 607 0
-149 -679 0
-149 150 0
-30 150 -653 0
-150 653 0
30 -150 0
-150 151 685 0
-150 151 -694 695 0
150 -151 0
-151 -685 694 0
-151 -685 -695 0
-30 152 -629 0
-152 629 0
30 -152 0
153 154 636 -693 0
153 154 -693 -696 0
-153 693 0
-153 -154 0
-153 -636 696 0
154 -658 714 0
-154 658 0
-154 -714 0
155 -157 -159 -657 0
155 156 -157 -159 0
-155 159 0
-155 157 0
-155 -156 657 0
-30 156 -571 0
-156 571 0
30 -156 0
157 158 -573 0
157 158 -479 -533 0
-157 -158 0
-157 479 573 0
-157 533 573 0
158 -533 572 0
158 475 572 0
-158 -572 0
-158 -475 533 0
159 160 -535 0
159 160 -475 534 0
-159 -160 0
-159 -534 535 0
-159 475 535 0
160 507 569 0
160 533 569 0
-160 -569 0
-160 -507 -533 0
161 -162 -718 719 0
-161 718 0
-161 -719 0
-161 162 0
-30 162 -581 0
-162 581 0
30 -162 0
163 -164 -715 716 0
-163 715 0
-163 -716 0
-163 164 0
-30 164 -602 0
-164 602 0
30 -164 0
165 -166 173 0
165 -166 175 177 0
-165 166 0
-165 -173 -175 0
-165 -173 -177 0
166 167 172 0
166 167 170 0
25 166 167 0
-166 -167 0
-25 -166 -170 -172 0
-49 -51 167 -168 626 0
-167 -626 0
-167 168 0
51 -167 0
49 -167 0
168 -169 485 486 520 0
-168 169 0
-168 -520 0
-168 -485 0
-168 -486 0
169 484 517 0
-169 -484 0
-169 -517 0
170 -171 503 519 618 0
-170 171 0
-170 -618 0
-170 -503 0
-170 -519 0
171 -578 -579 0
-171 578 0
-171 579 0
172 502 504 505 0
-172 -502 0
-172 -505 0
-172 -504 0
173 -174 502 503 519 0
-173 174 0
-173 -519 0
-173 -502 0
-173 -503 0
174 499 504 505 515 0
-174 -515 0
-174 -505 0
-174 -499 0
-174 -504 0
-26 175 -176 752 0
-175 176 0
26 -175 0
-175 -752 0
176 -599 -600 0
-176 599 0
-176 600 0
-171 177 -178 711 0
-177 178 0
171 -177 0
-177 -711 0
178 -568 -569 0
-178 568 0
-178 569 0
179 180 181 0
179 181 -677 0
179 181 676 0
-179 -181 0
-179 -180 -676 677 0
-30 180 -645 0
-180 645 0
30 -180 0
-164 181 -182 0
-164 181 -592 603 0
164 -181 0
-181 182 -603 0
-181 182 592 0
182 -727 739 0
-182 727 0
-182 -739 0
118 183 184 0
126 183 184 0
183 184 737 0
-183 -184 0
-118 -126 -183 -737 0
184 -185 -186 -187 519 0
-184 -519 0
-184 187 0
-184 186 0
-184 185 0
185 502 505 0
-185 -502 0
-185 -505 0
-176 -178 186 623 0
178 -186 0
176 -186 0
-186 -623 0
-27 187 503 516 0
27 -187 0
-187 -516 0
-187 -503 0
188 -189 -198 -207 -225 0
-188 225 0
-188 189 0
-188 207 0
-188 198 0
189 -190 -192 -194 -196 0
-189 196 0
-189 190 0
-189 194 0
-189 192 0
190 191 -540 0
190 191 -497 534 0
-190 -191 0
-190 -534 540 0
-190 497 540 0
191 -641 -686 736 0
-191 641 0
-191 686 0
-191 -736 0
192 193 -537 0
192 193 -488 534 0
-192 -193 0
-192 -534 537 0
-192 488 537 0
193 479 536 0
193 534 536 0
-193 -536 0
-193 -479 -534 0
194 195 -594 0
194 195 -479 -532 0
-194 -195 0
-194 479 594 0
-194 532 594 0
195 -532 586 0
195 497 586 0
-195 -586 0
-195 -497 532 0
196 197 -566 0
196 197 -477 531 0
-196 -197 0
-196 -531 566 0
-196 477 566 0
197 480 567 0
197 531 567 0
-197 -567 0
-197 -480 -531 0
198 -199 -201 -203 -205 0
-198 205 0
-198 199 0
-198 203 0
-198 201 0
199 200 -559 0
199 200 -488 533 0
-199 -200 0
-199 -533 559 0
-199 488 559 0
200 -480 551 0
200 478 551 0
-200 -551 0
-200 -478 480 0
201 202 -562 0
201 202 -478 -531 0
-201 -202 0
-201 478 562 0
-201 531 562 0
202 -531 556 0
202 475 556 0
-202 -556 0
-202 -475 531 0
203 204 -575 0
203 204 -476 533 0
-203 -204 0
-203 -533 575 0
-203 476 575 0
204 498 564 0
204 533 564 0
-204 -564 0
-204 -498 -533 0
205 206 704 0
205 206 -705 0
205 206 690 0
-205 -206 0
-205 -690 -704 705 0
206 -672 -686 687 0
-206 672 0
-206 686 0
-206 -687 0
207 -208 -216 -218 -220 0
-207 220 0
-207 208 0
-207 218 0
-207 216 0
208 -209 -214 -649 0
-36 208 -209 -214 0
-208 214 0
-208 209 0
36 -208 649 0
209 -210 -211 -212 -213 0
-209 213 0
-209 210 0
-209 212 0
-209 211 0
210 -489 -641 0
210 -558 620 0
210 -489 620 0
210 -558 -641 0
-210 489 558 0
-210 -620 641 0
211 -506 -653 0
211 -568 652 0
211 -506 652 0
211 -568 -653 0
-211 506 568 0
-211 -652 653 0
212 -498 -563 0
212 -497 -587 0
212 -497 -498 0
212 -563 -587 0
-212 498 587 0
-212 497 563 0
213 -489 -715 0
213 -584 666 0
213 -489 666 0
213 -584 -715 0
-213 489 584 0
-213 -666 715 0
214 -215 -553 0
214 -215 -477 0
-214 215 0
-214 477 553 0
215 -507 -609 0
215 582 -590 0
215 -507 582 0
215 -590 -609 0
-215 507 590 0
-215 -582 609 0
216 -217 -609 0
216 -217 603 608 0
-216 217 0
-216 -608 609 0
-216 -603 609 0
217 -531 -729 0
217 -614 698 0
217 -531 698 0
217 -614 -729 0
-217 531 614 0
-217 -698 729 0
218 219 -597 0
218 219 -478 -532 0
-218 -219 0
-218 478 597 0
-218 532 597 0
219 -532 593 0
219 475 593 0
-219 -593 0
-219 -475 532 0
220 -221 -222 -223 -224 0
-220 224 0
-220 221 0
-220 223 0
-220 222 0
221 -532 -632 0
221 -590 625 0
221 -532 625 0
221 -590 -632 0
-221 532 590 0
-221 -625 632 0
222 -553 685 0
222 476 -718 0
222 476 685 0
222 -553 -718 0
-222 -476 553 0
-222 -685 718 0
223 -498 -777 0
223 -614 666 0
223 -498 666 0
223 -614 -777 0
-223 498 614 0
-223 -666 777 0
224 -533 -753 0
224 -558 750 0
224 -533 750 0
224 -558 -753 0
-224 533 558 0
-224 -750 753 0
225 -226 -231 -235 -244 0
-225 244 0
-225 226 0
-225 235 0
-225 231 0
226 227 -229 -715 0
226 227 -228 -229 0
-226 229 0
-226 -227 0
-226 228 715 0
227 -751 753 0
227 -752 753 0
-227 -753 0
-227 751 752 0
228 664 665 0
-228 -664 0
-228 -665 0
229 230 -616 0
229 230 -506 531 0
-229 -230 0
-229 -531 616 0
-229 506 616 0
230 -531 610 0
230 488 610 0
-230 -610 0
-230 -488 531 0
231 232 -233 -632 0
-17 231 232 -233 0
-231 233 0
-231 -232 0
17 -231 632 0
232 -534 542 0
232 476 542 0
-232 -542 0
-232 -476 534 0
233 234 -543 0
233 234 -478 -534 0
-233 -234 0
-233 478 543 0
-233 534 543 0
234 -532 589 0
234 506 589 0
-234 -589 0
-234 -506 532 0
235 -236 -238 -240 -242 0
-235 242 0
-235 236 0
-235 240 0
-235 238 0
236 237 -547 0
236 237 -477 534 0
-236 -237 0
-236 -534 547 0
-236 477 547 0
237 480 579 0
237 533 579 0
-237 -579 0
-237 -480 -533 0
238 239 -548 0
238 239 -480 -534 0
-238 -239 0
-238 480 548 0
-238 534 548 0
239 -532 583 0
239 488 583 0
-239 -583 0
-239 -488 532 0
240 241 -596 0
240 241 -476 532 0
-240 -241 0
-240 -532 596 0
-240 476 596 0
241 -533 578 0
241 477 578 0
-241 -578 0
-241 -477 533 0
242 243 -545 0
242 243 -506 534 0
-242 -243 0
-242 -534 545 0
-242 506 545 0
243 -533 568 0
243 -533 563 0
-243 533 0
-243 -563 -568 0
244 -245 -254 -258 -260 0
-244 260 0
-244 245 0
-244 258 0
-244 254 0
245 -246 -248 -250 -252 0
-245 252 0
-245 246 0
-245 250 0
-245 248 0
246 247 -613 0
246 247 -497 531 0
-246 -247 0
-246 -531 613 0
-246 497 613 0
247 507 617 0
247 531 617 0
-247 -617 0
-247 -507 -531 0
248 249 -576 0
248 249 -478 -533 0
-248 -249 0
-248 478 576 0
-248 533 576 0
249 -531 561 0
249 476 561 0
-249 -561 0
-249 -476 531 0
250 251 -611 0
250 251 -489 -531 0
-250 -251 0
-250 489 611 0
-250 531 611 0
251 532 587 0
251 532 584 0
-251 -532 0
-251 -584 -587 0
252 253 -538 0
252 253 -489 -534 0
-252 -253 0
-252 489 538 0
-252 534 538 0
253 -478 552 0
253 479 552 0
-253 -552 0
-253 478 -479 0
254 -255 257 -718 0
-134 254 -255 257 0
-254 255 0
-254 -257 0
134 -254 718 0
255 256 -600 0
255 256 -480 -532 0
-255 -256 0
-255 480 600 0
-255 532 600 0
256 -532 599 0
256 477 599 0
-256 -599 0
-256 -477 532 0
257 498 541 0
257 534 541 0
-257 -541 0
-257 -498 -534 0
258 259 -546 0
258 259 -507 -534 0
-258 -259 0
-258 507 546 0
-258 534 546 0
259 -475 554 0
259 476 554 0
-259 -554 0
-259 475 -476 0
260 261 -557 0
260 261 -479 -531 0
-260 -261 0
-260 479 557 0
-260 531 557 0
261 -650 653 0
261 -651 653 0
-261 -653 0
-261 650 651 0
262 263 -273 -349 -417 0
-262 -263 0
-262 417 0
-262 349 0
-262 273 0
-14 263 -264 0
-14 263 -271 0
-14 263 -266 0
14 -263 0
-263 264 266 271 0
264 265 470 530 -708 0
-264 -470 0
-264 -265 0
-264 708 0
-264 -530 0
120 121 265 0
265 765 768 0
121 265 768 0
120 265 765 0
-120 -265 -768 0
-121 -265 -765 0
266 -268 269 0
266 -267 -268 -756 0
-266 268 0
-266 -269 756 0
-266 267 -269 0
267 472 473 0
-267 -472 0
-267 -473 0
268 470 529 530 -708 0
-268 708 0
-268 -530 0
-268 -470 0
-268 -529 0
129 269 762 0
269 270 749 0
129 269 270 0
269 749 762 0
-129 -269 -749 0
-269 -270 -762 0
270 473 474 0
-270 -473 0
-270 -474 0
-13 271 -272 470 -759 0
-271 -470 0
-271 272 0
13 -271 0
-271 759 0
272 529 -708 0
-272 -529 0
-272 708 0
273 -274 -289 -294 -308 0
-273 308 0
-273 274 0
-273 294 0
-273 289 0
274 -275 283 286 0
274 -275 284 286 0
-274 275 0
-274 -286 0
-274 -283 -284 0
275 277 279 0
275 278 279 0
275 276 279 0
-275 -279 0
-275 -276 -277 -278 0
276 487 526 -538 539 0
-276 -487 0
-276 -539 0
-276 538 0
-276 -526 0
277 481 486 509 517 0
-277 -517 0
-277 -509 0
-277 -481 0
-277 -486 0
278 523 -535 -536 -537 0
-278 -523 0
-278 537 0
-278 536 0
-278 535 0
-112 -117 279 -280 -281 0
-279 281 0
112 -279 0
-279 280 0
117 -279 0
280 493 494 512 518 0
-280 -518 0
-280 -512 0
-280 -493 0
-280 -494 0
281 -282 513 622 0
-281 282 0
-281 -622 0
-281 -513 0
282 -563 -564 0
-282 563 0
-282 564 0
283 511 518 527 -542 0
-283 542 0
-283 -527 0
-283 -511 0
-283 -518 0
-282 284 -285 -543 643 0
-284 285 0
-284 543 0
282 -284 0
-284 -643 0
285 494 495 512 521 0
-285 -521 0
-285 -512 0
-285 -494 0
-285 -495 0
286 -287 288 0
286 -287 -653 664 0
-286 287 0
-286 -288 653 0
-286 -288 -664 0
-30 287 -624 0
-287 624 0
30 -287 0
288 -648 -671 0
288 -648 670 0
-288 648 0
-288 -670 671 0
168 289 -290 292 0
289 -290 292 293 0
-289 290 0
-289 -292 0
-168 -289 -293 0
180 290 291 0
290 291 -646 0
290 291 602 0
-290 -291 0
-180 -290 -602 646 0
-152 291 -571 647 0
-291 571 0
-291 -647 0
152 -291 0
-148 292 -607 639 0
-292 607 0
-292 -639 0
148 -292 0
-8 -48 -53 293 633 0
-293 -633 0
53 -293 0
48 -293 0
8 -293 0
294 -299 -519 0
294 -299 -522 0
294 -295 -299 0
-294 299 0
-294 295 519 522 0
295 296 0
295 297 298 0
25 295 297 0
-295 -296 -297 0
-25 -295 -296 -298 0
296 502 503 504 0
-296 -502 0
-296 -504 0
-296 -503 0
-26 -27 -171 297 635 0
-297 -635 0
171 -297 0
27 -297 0
26 -297 0
-176 298 628 0
-298 -628 0
176 -298 0
299 -300 304 -774 0
299 -300 -302 304 0
-299 300 0
-299 -304 0
-299 302 774 0
-133 300 -703 0
300 301 -686 0
300 -686 -703 0
-133 300 301 0
-300 -301 703 0
133 -300 686 0
-30 301 -662 0
-301 662 0
30 -301 0
302 -303 703 772 773 0
-302 303 0
-302 -773 0
-302 -703 0
-302 -772 0
303 695 700 701 702 0
-303 -702 0
-303 -701 0
-303 -695 0
-303 -700 0
304 305 306 0
304 306 -725 730 0
-304 -306 0
-304 -305 -730 0
-304 -305 725 0
305 -729 -735 0
305 -729 734 0
-305 729 0
-305 -734 735 0
306 -307 696 697 729 0
-306 307 0
-306 -729 0
-306 -696 0
-306 -697 0
307 726 728 0
-307 -726 0
-307 -728 0
308 -309 -315 -332 -341 0
-308 341 0
-308 309 0
-308 332 0
-308 315 0
180 309 311 -312 0
309 -310 311 -312 0
-309 312 0
-309 -311 0
-180 -309 310 0
310 619 699 0
310 -700 -702 0
310 699 -702 0
310 619 -700 0
-310 -699 700 0
-310 -619 702 0
-301 311 -581 697 0
-311 581 0
-311 -697 0
301 -311 0
148 312 313 0
312 313 -720 0
312 313 681 0
-312 -313 0
-148 -312 -681 720 0
313 -314 -632 689 0
-313 632 0
-313 -689 0
-313 314 0
-30 314 -592 0
-314 592 0
30 -314 0
315 -316 327 331 0
315 -316 327 329 0
-315 316 0
-315 -327 0
-315 -329 -331 0
316 317 323 0
316 317 322 0
-316 -317 0
-316 -322 -323 0
317 -318 -319 -320 -321 0
-317 321 0
-317 318 0
-317 320 0
-317 319 0
318 493 494 -561 -562 0
-318 -493 0
-318 562 0
-318 561 0
-318 -494 0
-282 319 496 565 0
282 -319 0
-319 -565 0
-319 -496 0
320 491 495 0
-320 -491 0
-320 -495 0
321 511 512 0
-321 -511 0
-321 -512 0
322 491 493 513 588 0
-322 -588 0
-322 -513 0
-322 -491 0
-322 -493 0
-321 323 -324 -325 -326 0
-323 326 0
-323 324 0
-323 325 0
321 -323 0
324 -561 -562 0
-324 561 0
-324 562 0
325 494 496 0
-325 -494 0
-325 -496 0
326 -586 -587 0
-326 586 0
-326 587 0
-116 -320 -324 327 -328 0
-327 328 0
116 -327 0
320 -327 0
324 -327 0
328 512 -541 605 0
-328 -512 0
-328 541 0
-328 -605 0
329 -330 484 486 487 0
-329 330 0
-329 -487 0
-329 -484 0
-329 -486 0
330 482 508 -556 -557 0
-330 -482 0
-330 557 0
-330 556 0
-330 -508 0
-9 331 485 509 560 0
9 -331 0
-331 -560 0
-331 -485 0
-331 -509 0
148 332 333 -334 0
332 333 -334 -698 0
-332 334 0
-332 -333 0
-148 -332 698 0
-162 333 -571 582 0
-333 571 0
-333 -582 0
162 -333 0
334 335 340 0
334 335 338 0
56 334 335 0
-334 -335 0
-56 -334 -338 -340 0
335 -336 -337 0
335 -336 -602 638 0
-335 336 0
-335 337 -638 0
-335 337 602 0
-30 336 -636 0
-336 636 0
30 -336 0
337 -632 637 0
-337 632 0
-337 -637 0
338 -339 486 520 642 0
-338 339 0
-338 -642 0
-338 -486 0
-338 -520 0
339 517 526 0
-339 -517 0
-339 -526 0
-53 340 -558 -559 0
-340 558 0
-340 559 0
53 -340 0
341 343 -347 -743 0
341 -342 343 -347 0
-341 347 0
-341 -343 0
-341 342 743 0
-90 -307 342 741 742 0
-342 -741 0
307 -342 0
90 -342 0
-342 -742 0
-49 -53 343 -344 -345 0
-343 345 0
49 -343 0
-343 344 0
53 -343 0
344 -537 -538 0
-344 537 0
-344 538 0
345 -346 517 523 595 0
-345 346 0
-345 -595 0
-345 -517 0
-345 -523 0
346 484 486 487 0
-346 -484 0
-346 -487 0
-346 -486 0
152 347 348 0
347 348 -701 0
347 348 653 0
-347 -348 0
-152 -347 -653 701 0
-156 348 -670 688 0
-348 670 0
-348 -688 0
156 -348 0
349 -350 -356 -363 -383 0
-349 383 0
-349 350 0
-349 363 0
-349 356 0
350 352 354 -355 0
350 351 354 -355 0
-350 355 0
-350 -354 0
-350 -351 -352 0
351 492 494 495 496 0
-351 -496 0
-351 -495 0
-351 -492 0
-351 -494 0
-283 352 -353 -543 660 0
-352 353 0
-352 543 0
283 -352 0
-352 -660 0
353 -613 -614 0
-353 613 0
-353 614 0
-152 354 -609 669 0
-354 609 0
-354 -669 0
152 -354 0
-16 355 -717 0
-35 355 -672 0
355 -672 -717 0
-16 -35 355 0
35 -355 717 0
16 -355 672 0
162 356 357 -358 0
356 357 -358 -640 0
-356 358 0
-356 -357 0
-162 -356 640 0
-336 357 -694 726 0
-357 694 0
-357 -726 0
336 -357 0
358 359 361 0
358 360 361 0
330 358 361 0
-358 -361 0
-330 -358 -359 -360 0
-48 359 509 510 585 0
48 -359 0
-359 -585 0
-359 -509 0
-359 -510 0
360 484 485 487 0
-360 -484 0
-360 -487 0
-360 -485 0
-301 361 -362 0
-301 361 -571 665 0
301 -361 0
-361 362 -665 0
-361 362 571 0
362 -658 663 0
-362 658 0
-362 -663 0
363 -364 367 369 -374 0
-363 374 0
-363 -369 0
-363 364 0
-363 -367 0
152 364 365 0
364 365 -630 0
364 365 607 0
-364 -365 0
-152 -364 -607 630 0
-27 -28 -29 365 -366 0
-365 366 0
27 -365 0
29 -365 0
28 -365 0
-178 366 522 644 0
178 -366 0
-366 -644 0
-366 -522 0
367 368 -686 0
367 -686 -717 776 0
-367 686 0
-367 -368 717 0
-367 -368 -776 0
368 690 740 0
368 -772 -779 0
368 740 -779 0
368 690 -772 0
-368 -740 772 0
-368 -690 779 0
369 -370 -371 -372 -373 0
-369 373 0
-369 370 0
-369 372 0
-369 371 0
370 -616 -617 0
-370 616 0
-370 617 0
371 499 505 0
-371 -499 0
-371 -505 0
372 -566 -567 0
-372 566 0
-372 567 0
-296 373 500 501 783 0
296 -373 0
-373 -783 0
-373 -500 0
-373 -501 0
374 -375 379 -690 0
-140 374 -375 379 0
-374 375 0
-374 -379 0
140 -374 690 0
375 377 -704 0
-66 375 -376 377 0
-375 -377 0
-375 376 704 0
66 -375 704 0
376 695 700 0
-376 -695 0
-376 -700 0
377 378 667 0
377 -666 667 0
228 377 667 0
-377 -667 0
-228 -377 -378 666 0
378 654 663 0
-378 -654 0
-378 -663 0
379 -380 -381 -382 0
-379 380 0
-379 381 0
-379 382 0
380 494 495 -586 -587 0
-380 -494 0
-380 587 0
-380 586 0
-380 -495 0
381 493 511 518 -575 0
-381 575 0
-381 -518 0
-381 -493 0
-381 -511 0
382 512 521 -576 634 0
-382 -512 0
-382 -634 0
-382 576 0
-382 -521 0
383 -384 -399 -407 -412 0
-383 412 0
-383 384 0
-383 407 0
-383 399 0
384 -385 -389 -395 -397 0
-384 397 0
-384 385 0
-384 395 0
-384 389 0
385 386 387 0
385 387 -724 0
385 387 715 0
-385 -387 0
-385 -386 -715 724 0
-30 386 -607 0
-386 607 0
30 -386 0
-26 -187 -372 387 -388 0
-387 388 0
26 -387 0
372 -387 0
187 -387 0
388 500 502 505 591 0
-388 -591 0
-388 -505 0
-388 -500 0
-388 -502 0
389 391 394 0
389 391 393 0
389 390 391 0
-389 -391 0
-389 -390 -393 -394 0
390 502 505 519 0
-390 -502 0
-390 -519 0
-390 -505 0
-114 -282 391 -392 710 0
-391 -710 0
-391 392 0
282 -391 0
114 -391 0
-280 392 490 495 496 0
280 -392 0
-392 -496 0
-392 -490 0
-392 -495 0
-171 393 516 -546 580 0
-393 546 0
-393 -580 0
-393 -516 0
171 -393 0
-27 394 525 -545 0
27 -394 0
-394 545 0
-394 -525 0
395 396 -734 0
-45 395 396 0
-395 -396 0
45 -395 734 0
-121 -268 396 -706 -707 0
268 -396 0
-396 706 0
121 -396 0
-396 707 0
314 397 398 0
397 398 -723 0
397 398 649 0
-397 -398 0
-314 -397 -649 723 0
143 398 740 0
-398 -740 0
-143 -398 0
399 401 406 0
399 401 404 0
399 400 401 0
-399 -401 0
-399 -400 -404 -406 0
400 490 495 496 0
-400 -490 0
-400 -496 0
-400 -495 0
-178 -372 401 -402 -403 0
-401 403 0
178 -401 0
-401 402 0
372 -401 0
-172 402 500 0
-402 -500 0
172 -402 0
403 503 514 515 570 0
-403 -570 0
-403 -515 0
-403 -503 0
-403 -514 0
404 -405 -541 -543 544 0
-404 405 0
-404 541 0
-404 543 0
-404 -544 0
405 524 -540 0
-405 -524 0
-405 540 0
406 512 518 527 -542 0
-406 542 0
-406 -527 0
-406 -512 0
-406 -518 0
407 408 411 0
340 407 408 0
360 407 408 0
-407 -408 0
-340 -360 -407 -411 0
-29 -174 408 -409 -410 0
-408 410 0
29 -408 0
-408 409 0
174 -408 0
409 519 525 528 549 0
-409 -549 0
-409 -528 0
-409 -519 0
-409 -525 0
410 -545 -546 0
-410 545 0
-410 546 0
-49 411 510 517 621 0
49 -411 0
-411 -621 0
-411 -510 0
-411 -517 0
412 413 -414 -721 0
-38 412 413 -414 0
-412 414 0
-412 -413 0
38 -412 721 0
-336 413 675 0
-336 413 -571 678 0
336 -413 0
-413 -675 -678 0
-413 571 -675 0
180 414 415 0
414 415 -683 0
414 415 636 0
-414 -415 0
-180 -414 -636 683 0
-329 415 -416 -537 -538 0
-415 416 0
-415 537 0
329 -415 0
-415 538 0
416 509 523 604 0
-416 -509 0
-416 -604 0
-416 -523 0
417 -418 -438 -447 -457 0
-417 457 0
-417 418 0
-417 447 0
-417 438 0
418 -419 -423 -429 -434 0
-418 434 0
-418 419 0
-418 429 0
-418 423 0
419 -420 422 -641 0
-123 419 -420 422 0
-419 420 0
-419 -422 0
123 -419 641 0
180 420 421 0
420 421 -656 0
420 421 607 0
-420 -421 0
-180 -420 -607 656 0
-30 421 -592 -624 655 0
30 -421 0
-421 592 0
-421 624 0
-421 -655 0
-150 422 -649 654 0
-422 649 0
-422 -654 0
150 -422 0
381 423 -424 427 0
423 -424 427 428 0
-423 424 0
-423 -427 0
-381 -423 -428 0
386 424 425 0
424 425 -733 0
424 425 718 0
-424 -425 0
-386 -424 -718 733 0
-372 -394 -402 425 -426 0
-425 426 0
372 -425 0
402 -425 0
394 -425 0
426 -546 606 0
-426 546 0
-426 -606 0
-162 427 -624 625 0
-427 624 0
-427 -625 0
162 -427 0
-351 -353 428 -576 615 0
353 -428 0
-428 576 0
351 -428 0
-428 -615 0
429 -430 431 -608 0
386 429 -430 431 0
-429 430 0
-429 -431 0
-386 -429 608 0
-42 430 -680 0
314 430 -725 0
430 -680 -725 0
-42 314 430 0
-314 -430 680 0
42 -430 725 0
-53 -169 431 -432 -433 0
-431 433 0
53 -431 0
-431 432 0
169 -431 0
432 487 510 -538 574 0
-432 -487 0
-432 -574 0
-432 538 0
-432 -510 0
-8 433 523 -537 0
8 -433 0
-433 537 0
-433 -523 0
180 434 435 -436 0
434 435 -436 -666 0
-434 436 0
-434 -435 0
-180 -434 666 0
13 435 707 0
435 -530 707 0
-435 -707 0
-13 -435 530 0
436 437 -631 0
164 380 436 0
164 436 437 0
380 436 -631 0
-164 -436 631 0
-380 -436 -437 0
-117 -406 437 -543 651 0
406 -437 0
-437 543 0
117 -437 0
-437 -651 0
6 438 439 -443 0
438 439 441 -443 0
-438 443 0
-438 -439 0
-6 -438 -441 0
439 440 -672 0
439 -672 -721 745 0
-439 672 0
-439 -440 721 0
-439 -440 -745 0
440 667 704 0
440 -748 -758 0
440 667 -758 0
440 704 -748 0
-440 -667 748 0
-440 -704 758 0
441 -442 482 483 781 0
-441 442 0
-441 -781 0
-441 -482 0
-441 -483 0
442 -556 -557 -610 -611 0
-442 611 0
-442 556 0
-442 610 0
-442 557 0
443 444 -777 0
-228 443 444 -446 0
-443 -444 0
228 -443 777 0
-443 446 777 0
444 445 -734 0
444 -704 -734 769 0
-444 734 0
-444 -445 704 0
-444 -445 -769 0
445 672 717 0
445 -763 -766 0
445 672 -766 0
445 717 -763 0
-445 -672 763 0
-445 -717 766 0
446 654 663 775 776 0
-446 -776 0
-446 -775 0
-446 -654 0
-446 -663 0
447 448 449 -451 0
447 448 450 -451 0
-447 -448 0
-447 451 0
-447 -449 -450 0
-12 -14 -272 448 -743 0
272 -448 0
-448 743 0
14 -448 0
12 -448 0
-27 -176 449 -545 -546 0
176 -449 0
-449 545 0
27 -449 0
-449 546 0
-172 450 519 525 601 0
172 -450 0
-450 -601 0
-450 -519 0
-450 -525 0
148 451 452 0
451 452 -620 0
451 452 609 0
-451 -452 0
-148 -451 -609 620 0
452 -453 -454 521 627 0
-452 -521 0
-452 454 0
-452 453 0
-452 -627 0
453 493 494 0
-453 -493 0
-453 -494 0
-112 -353 454 -455 -456 0
353 -454 0
112 -454 0
-454 456 0
-454 455 0
455 511 518 0
-455 -511 0
-455 -518 0
456 492 495 0
-456 -492 0
-456 -495 0
457 -458 -463 466 467 0
-457 463 0
-457 -467 0
-457 458 0
-457 -466 0
7 458 -459 462 0
458 -459 461 462 0
-458 459 0
-458 -462 0
-7 -458 -461 0
148 459 460 0
459 460 -674 0
459 460 592 0
-459 -460 0
-148 -459 -592 674 0
-162 460 -727 728 0
-460 727 0
-460 -728 0
162 -460 0
-8 -51 461 517 612 0
-461 -517 0
51 -461 0
8 -461 0
-461 -612 0
-156 462 -676 732 0
-462 676 0
-462 -732 0
156 -462 0
150 463 464 0
463 464 -673 0
463 464 581 0
-463 -464 0
-150 -463 -581 673 0
-318 -320 -353 464 -465 0
-464 465 0
318 -464 0
353 -464 0
320 -464 0
465 490 492 496 782 0
-465 -782 0
-465 -496 0
-465 -490 0
-465 -492 0
-112 -326 -392 466 751 0
-466 -751 0
392 -466 0
326 -466 0
112 -466 0
-301 467 468 0
-301 467 -681 682 0
301 -467 0
-467 -468 681 0
-467 -468 -682 0
468 592 602 0
468 -684 -691 0
468 592 -691 0
468 602 -684 0
-468 -592 684 0
-468 -602 691 0
1 -2 0
-1 2 0
787 0

